; benchmark generated from python API
(set-info :status unknown)
(declare-datatypes ((IntState 0)) (((Mk1 (val1 Int)) (Mk2 (val2 Int)))))
 (declare-fun c_main_~j~6 () Int)
(declare-fun c_main_~k~6 () Int)
(declare-fun c_main_~i~6 () Int)
(assert
 (let (($x163 (exists ((v_nnf_78_st IntState) (val!173 Int) )(let ((?x56 (val2 v_nnf_78_st)))
 (let (($x24 (<= ?x56 4)))
 (let (($x134 (and (<= (+ ?x56 2) c_main_~k~6) (<= c_main_~j~6 (+ (* 2 ?x56) 1)) $x24)))
 (let (($x52 (not (= v_nnf_78_st (Mk1 val!173)))))
 (and $x52 $x134))))))
 ))
 (let (($x67 (<= c_main_~i~6 3)))
 (let ((?x35 (* 2 c_main_~i~6)))
 (let (($x84 (<= c_main_~j~6 ?x35)))
 (let (($x153 (<= c_main_~i~6 2)))
 (let (($x108 (<= c_main_~i~6 4)))
 (let (($x29 (<= c_main_~j~6 (+ ?x35 1))))
 (let (($x171 (exists ((v_nnf_78 Int) )(let (($x110 (<= v_nnf_78 4)))
 (and (<= (+ v_nnf_78 2) c_main_~k~6) (<= c_main_~j~6 (+ (* 2 v_nnf_78) 1)) $x110)))
 ))
 (and (and $x153 $x84 $x108 $x67 $x171) (not (and $x29 $x108 $x153 $x84 $x67 $x163))))))))))))
(check-sat)
